[geometry]
xmin = 0
xmax = 0.08
ymin = 0
ymax = 0.16
zmin = 0
zmax = 0.08


[grid]
NXM = 256
NYM = 512
NZM = 256


[flow]
Re = 9.6525e+03
dp_dx = 0  # constant volume force



# Initialization types:
# 0 - zero flow
# 1 - uniform flow profile
# 2 - linear flow profile
# 3 - Poiseuille (parabolic) flow profile
# 4 - rotational shear flow profile
# 5 - precursor simulation
vel_init_type = 0
vel_init_y0 = 0  ## over this coordinate velocity is set
ubulk_target = 0 #  constant mass flux enables this


[simulation]
time_max = 0.24
output_time_interval = 0.01
cfl = 0.5
default_dt = 2.5e-4
constant_dt = 1 #  if 0 = CFL condition if 1== default timestep
resume = 0	# if 0 =  start from t=0



[particle]
grav = {0, -9.81, 0}  # {a,b,c,..} notion for a list
rho_s = 8.083;
Co = 0;


e_dry_wall = 0.97
e_dry_particles = 0.97
Ndt_coll = 10
N_forcing_loops = 3  # Extra loops for enforcing no-slip
