50			
0	0.6	0	0.6
0	5.4	0	0.6
1.2	0.6	0	0.6
1.2	5.4	0	0.6
2.4	0.6	0	0.6
2.4	5.4	0	0.6
3.6	0.6	0	0.6
3.6	5.4	0	0.6
4.8	0.6	0	0.6
4.8	5.4	0	0.6
0	0.6	1.2	0.6
0	5.4	1.2	0.6
1.2	0.6	1.2	0.6
1.2	5.4	1.2	0.6
2.4	0.6	1.2	0.6
2.4	5.4	1.2	0.6
3.6	0.6	1.2	0.6
3.6	5.4	1.2	0.6
4.8	0.6	1.2	0.6
4.8	5.4	1.2	0.6
0	0.6	2.4	0.6
0	5.4	2.4	0.6
1.2	0.6	2.4	0.6
1.2	5.4	2.4	0.6
2.4	0.6	2.4	0.6
2.4	5.4	2.4	0.6
3.6	0.6	2.4	0.6
3.6	5.4	2.4	0.6
4.8	0.6	2.4	0.6
4.8	5.4	2.4	0.6
0	0.6	3.6	0.6
0	5.4	3.6	0.6
1.2	0.6	3.6	0.6
1.2	5.4	3.6	0.6
2.4	0.6	3.6	0.6
2.4	5.4	3.6	0.6
3.6	0.6	3.6	0.6
3.6	5.4	3.6	0.6
4.8	0.6	3.6	0.6
4.8	5.4	3.6	0.6
0	0.6	4.8	0.6
0	5.4	4.8	0.6
1.2	0.6	4.8	0.6
1.2	5.4	4.8	0.6
2.4	0.6	4.8	0.6
2.4	5.4	4.8	0.6
3.6	0.6	4.8	0.6
3.6	5.4	4.8	0.6
4.8	0.6	4.8	0.6
4.8	5.4	4.8	0.6

